
Value of objective function: 1.68661972

Actual values of the variables:
score                     1.68662
x_0_t_1                       0.5
x_1_t_1                       0.5
x_0_t_0                         0
x_0_t_2                       0.5
x_0_t_3                       0.5
x_0_t_4                   0.81338
x_0_t_5                   0.81338
x_0_t_6                   0.81338
x_0_t_7                   0.81338
x_0_t_8                   0.81338
x_0_t_9                   0.81338
x_0_t_10                  0.81338
x_0_t_11                  0.81338
x_0_t_12                  0.81338
x_0_t_13                  0.81338
x_0_t_14                  0.81338
x_0_t_15                  0.81338
x_0_t_16                  0.81338
x_0_t_17                  0.81338
x_1_t_0                         0
x_1_t_2                   0.81338
x_1_t_3                   0.81338
x_1_t_4                   0.81338
x_1_t_5                   0.81338
x_1_t_6                   0.81338
x_1_t_7                   0.81338
x_1_t_8                   0.81338
x_1_t_9                   0.81338
x_1_t_10                  0.81338
x_1_t_11                  0.81338
x_1_t_12                  0.81338
x_1_t_13                  0.81338
x_1_t_14                  0.81338
x_1_t_15                  0.81338
x_1_t_16                  0.81338
x_1_t_17                  0.81338
x_10_t_0                        0
x_10_t_1                        0
x_10_t_2                        0
x_10_t_3                        0
x_10_t_4                        0
x_10_t_5                        0
x_10_t_6                        0
x_10_t_7                        0
x_10_t_8                        0
x_10_t_9                        0
x_10_t_10                0.235915
x_10_t_11                0.765258
x_10_t_12                0.765258
x_10_t_13                0.765258
x_10_t_14                0.765258
x_10_t_15                0.765258
x_10_t_16                0.765258
x_10_t_17                       1
x_11_t_0                        0
x_11_t_1                        0
x_11_t_2                        0
x_11_t_3                        0
x_11_t_4                        0
x_11_t_5                        0
x_11_t_6                        0
x_11_t_7                        0
x_11_t_8                        0
x_11_t_9                        0
x_11_t_10                       0
x_11_t_11                0.234742
x_11_t_12                0.234742
x_11_t_13                0.234742
x_11_t_14                0.842723
x_11_t_15                0.842723
x_11_t_16                0.842723
x_11_t_17                       1
x_12_t_0                        0
x_12_t_1                        0
x_12_t_2                        0
x_12_t_3                        0
x_12_t_4                        0
x_12_t_5                        0
x_12_t_6                        0
x_12_t_7                        0
x_12_t_8                        0
x_12_t_9                        0
x_12_t_10                       0
x_12_t_11                       0
x_12_t_12                0.237089
x_12_t_13                0.766432
x_12_t_14                0.766432
x_12_t_15                0.766432
x_12_t_16                0.766432
x_12_t_17                0.766432
x_13_t_0                        0
x_13_t_1                        0
x_13_t_2                        0
x_13_t_3                        0
x_13_t_4                        0
x_13_t_5                        0
x_13_t_6                        0
x_13_t_7                        0
x_13_t_8                        0
x_13_t_9                        0
x_13_t_10                       0
x_13_t_11                       0
x_13_t_12                       0
x_13_t_13                0.233568
x_13_t_14                0.233568
x_13_t_15                 0.31338
x_13_t_16                       1
x_13_t_17                       1
x_14_t_0                        0
x_14_t_1                        0
x_14_t_2                        0
x_14_t_3                        0
x_14_t_4                        0
x_14_t_5                        0
x_14_t_6                        0
x_14_t_7                        0
x_14_t_8                        0
x_14_t_9                        0
x_14_t_10                       0
x_14_t_11                       0
x_14_t_12                       0
x_14_t_13                0.157277
x_14_t_14                0.157277
x_14_t_15                0.764085
x_14_t_16                0.764085
x_14_t_17                0.764085
x_15_t_0                        0
x_15_t_1                        0
x_15_t_2                        0
x_15_t_3                        0
x_15_t_4                        0
x_15_t_5                        0
x_15_t_6                        0
x_15_t_7                        0
x_15_t_8                        0
x_15_t_9                        0
x_15_t_10                       0
x_15_t_11                       0
x_15_t_12                       0
x_15_t_13                       0
x_15_t_14                       0
x_15_t_15                0.235915
x_15_t_16                0.235915
x_15_t_17                0.235915
x_16_t_0                        0
x_16_t_1                        0
x_16_t_2                        0
x_16_t_3                        0
x_16_t_4                        0
x_16_t_5                        0
x_16_t_6                        0
x_16_t_7                        0
x_16_t_8                        0
x_16_t_9                        0
x_16_t_10                       0
x_16_t_11                       0
x_16_t_12                       0
x_16_t_13                       0
x_16_t_14                       0
x_16_t_15                       0
x_16_t_16                       0
x_16_t_17                       0
x_2_t_0                         0
x_2_t_1                         0
x_2_t_2                   0.18662
x_2_t_3                  0.626761
x_2_t_4                  0.626761
x_2_t_5                  0.626761
x_2_t_6                  0.626761
x_2_t_7                  0.626761
x_2_t_8                  0.626761
x_2_t_9                  0.626761
x_2_t_10                 0.626761
x_2_t_11                 0.626761
x_2_t_12                 0.626761
x_2_t_13                 0.626761
x_2_t_14                 0.626761
x_2_t_15                 0.626761
x_2_t_16                 0.626761
x_2_t_17                 0.626761
x_3_t_0                         0
x_3_t_1                         0
x_3_t_2                         0
x_3_t_3                  0.373239
x_3_t_4                  0.373239
x_3_t_5                  0.373239
x_3_t_6                         1
x_3_t_7                         1
x_3_t_8                         1
x_3_t_9                         1
x_3_t_10                        1
x_3_t_11                        1
x_3_t_12                        1
x_3_t_13                        1
x_3_t_14                        1
x_3_t_15                        1
x_3_t_16                        1
x_3_t_17                        1
x_4_t_0                         0
x_4_t_1                         0
x_4_t_2                         0
x_4_t_3                         0
x_4_t_4                   0.18662
x_4_t_5                  0.380282
x_4_t_6                  0.380282
x_4_t_7                  0.380282
x_4_t_8                  0.380282
x_4_t_9                  0.380282
x_4_t_10                 0.380282
x_4_t_11                 0.380282
x_4_t_12                 0.380282
x_4_t_13                 0.380282
x_4_t_14                 0.380282
x_4_t_15                 0.380282
x_4_t_16                 0.380282
x_4_t_17                 0.380282
x_5_t_0                         0
x_5_t_1                         0
x_5_t_2                         0
x_5_t_3                         0
x_5_t_4                         0
x_5_t_5                  0.619718
x_5_t_6                  0.619718
x_5_t_7                  0.619718
x_5_t_8                  0.760563
x_5_t_9                  0.760563
x_5_t_10                 0.760563
x_5_t_11                 0.760563
x_5_t_12                 0.760563
x_5_t_13                 0.760563
x_5_t_14                 0.760563
x_5_t_15                 0.760563
x_5_t_16                 0.760563
x_5_t_17                 0.760563
x_6_t_0                         0
x_6_t_1                         0
x_6_t_2                         0
x_6_t_3                         0
x_6_t_4                         0
x_6_t_5                         0
x_6_t_6                         0
x_6_t_7                   0.68662
x_6_t_8                   0.68662
x_6_t_9                   0.68662
x_6_t_10                  0.68662
x_6_t_11                  0.68662
x_6_t_12                  0.68662
x_6_t_13                  0.68662
x_6_t_14                  0.68662
x_6_t_15                  0.68662
x_6_t_16                  0.68662
x_6_t_17                  0.68662
x_7_t_0                         0
x_7_t_1                         0
x_7_t_2                         0
x_7_t_3                         0
x_7_t_4                         0
x_7_t_5                         0
x_7_t_6                         0
x_7_t_7                   0.31338
x_7_t_8                   0.31338
x_7_t_9                  0.549296
x_7_t_10                 0.764085
x_7_t_11                 0.764085
x_7_t_12                 0.764085
x_7_t_13                 0.764085
x_7_t_14                 0.764085
x_7_t_15                 0.764085
x_7_t_16                 0.764085
x_7_t_17                        1
x_8_t_0                         0
x_8_t_1                         0
x_8_t_2                         0
x_8_t_3                         0
x_8_t_4                         0
x_8_t_5                         0
x_8_t_6                         0
x_8_t_7                         0
x_8_t_8                  0.239437
x_8_t_9                  0.690141
x_8_t_10                 0.690141
x_8_t_11                 0.690141
x_8_t_12                 0.690141
x_8_t_13                 0.690141
x_8_t_14                 0.690141
x_8_t_15                 0.690141
x_8_t_16                 0.690141
x_8_t_17                 0.690141
x_9_t_0                         0
x_9_t_1                         0
x_9_t_2                         0
x_9_t_3                         0
x_9_t_4                         0
x_9_t_5                         0
x_9_t_6                         0
x_9_t_7                         0
x_9_t_8                         0
x_9_t_9                  0.309859
x_9_t_10                 0.309859
x_9_t_11                 0.467136
x_9_t_12                 0.762911
x_9_t_13                 0.762911
x_9_t_14                 0.762911
x_9_t_15                 0.762911
x_9_t_16                 0.762911
x_9_t_17                 0.762911
